1	3	1	2	6	15	0	0	0	0	0	0
2000	1	0	0	0	0	0	0	0	0	0	0
250	1	0	60.63	0.49	1	0	0	0	0	0	0
250	1	0	60.63	0.49	1	0	0	0	0	0	0
250     1       0       60.63   0.49    1       0       0       0       0       0       0
50	150	0	0	0	0	1000	0	0	99999	0	0
50	75	0	0	0	0	1000	0	0	99999	0	0
50	25	0	0	0	0	1000	0	0	99999	0	0
50	75	0	0	0	0	1000	0	0	0	0	0
50	25	0	0	0	0	1000	0	0	0	0	0
48	60	0	0	0	0	1000	0	0	0	0	0
20	61	0	0	0	0	1000	0	0	0	0	0
21	22	0	0	0	0	1000	0	0	0	0	0
64      37      0       0       0       0       1000    0       0       0       0       0
8	56	27	4	23	487	935	10	0	0	0	0
28	18	26	17	9	651	679	10	0	0	0	0
55	60	16	15	1	511	951	10	0	0	0	0
26	52	9	5	4	281	733	10	0	0	0	0
2	48	1	0	1	162	576	10	0	0	0	0
35	40	16	14	2	213	795	10	0	0	0	0
30	60	16	8	8	605	903	10	0	0	0	0
37	56	5	3	2	138	402	10	0	0	0	0
40	60	21	14	7	538	842	10	0	0	0	0
15	30	26	13	13	137	651	10	0	0	0	0
45	10	18	4	14	723	1079	10	0	0	0	0
57	48	23	19	4	142	505	10	0	0	0	0
55	20	19	7	12	817	999	10	0	0	0	0
27	69	10	4	6	476	1006	10	0	0	0	0
65	55	14	12	2	232	618	10	0	0	0	0
